(set-logic HORN)
(declare-datatypes ((Nat_0 0)) (((Z_1 ) (Z_2 (unS_0 Nat_0)))))
(declare-fun diseqNat_0 (Nat_0 Nat_0) Bool)
(declare-fun add_0 (Nat_0 Nat_0 Nat_0) Bool)
(declare-datatypes ((Bin_0 0)) (((One_0 ) (ZeroAnd_0 (projZeroAnd_0 Bin_0)) (OneAnd_0 (projOneAnd_0 Bin_0)))))
(declare-fun toNat_0 (Nat_0 Bin_0) Bool)
(declare-fun s_0 (Bin_0 Bin_0) Bool)
(declare-fun plus_0 (Bin_0 Bin_0 Bin_0) Bool)
(assert (forall ((x_44 Nat_0))
	(diseqNat_0 Z_1 (Z_2 x_44))))
(assert (forall ((x_45 Nat_0))
	(diseqNat_0 (Z_2 x_45) Z_1)))
(assert (forall ((x_46 Nat_0) (x_47 Nat_0))
	(=> (diseqNat_0 x_46 x_47) (diseqNat_0 (Z_2 x_46) (Z_2 x_47)))))
(assert (forall ((y_2 Nat_0))
	(add_0 y_2 Z_1 y_2)))
(assert (forall ((r_0 Nat_0) (x_35 Nat_0) (y_2 Nat_0))
	(=> (add_0 r_0 x_35 y_2) (add_0 (Z_2 r_0) (Z_2 x_35) y_2))))
(assert (forall ((x_36 Nat_0) (x_37 Nat_0) (x_6 Nat_0) (x_7 Nat_0) (ys_0 Bin_0))
	(=> (and (toNat_0 x_6 ys_0) (toNat_0 x_7 ys_0) (add_0 x_36 (Z_2 Z_1) x_6) (add_0 x_37 x_36 x_7)) (toNat_0 x_37 (OneAnd_0 ys_0)))))
(assert (forall ((x_38 Nat_0) (x_9 Nat_0) (x_10 Nat_0) (xs_0 Bin_0))
	(=> (and (toNat_0 x_9 xs_0) (toNat_0 x_10 xs_0) (add_0 x_38 x_9 x_10)) (toNat_0 x_38 (ZeroAnd_0 xs_0)))))
(assert (toNat_0 (Z_2 Z_1) One_0))
(assert (forall ((x_13 Bin_0) (ys_1 Bin_0))
	(=> (s_0 x_13 ys_1) (s_0 (ZeroAnd_0 x_13) (OneAnd_0 ys_1)))))
(assert (forall ((xs_1 Bin_0))
	(s_0 (OneAnd_0 xs_1) (ZeroAnd_0 xs_1))))
(assert (s_0 (ZeroAnd_0 One_0) One_0))
(assert (forall ((x_17 Bin_0) (x_18 Bin_0) (ys_3 Bin_0) (x_3 Bin_0))
	(=> (and (plus_0 x_17 x_3 ys_3) (s_0 x_18 x_17)) (plus_0 (ZeroAnd_0 x_18) (OneAnd_0 x_3) (OneAnd_0 ys_3)))))
(assert (forall ((x_20 Bin_0) (zs_0 Bin_0) (x_3 Bin_0))
	(=> (plus_0 x_20 x_3 zs_0) (plus_0 (OneAnd_0 x_20) (OneAnd_0 x_3) (ZeroAnd_0 zs_0)))))
(assert (forall ((x_21 Bin_0) (x_3 Bin_0))
	(=> (s_0 x_21 (OneAnd_0 x_3)) (plus_0 x_21 (OneAnd_0 x_3) One_0))))
(assert (forall ((x_24 Bin_0) (xs_2 Bin_0) (z_0 Bin_0))
	(=> (plus_0 x_24 z_0 xs_2) (plus_0 (OneAnd_0 x_24) (ZeroAnd_0 z_0) (OneAnd_0 xs_2)))))
(assert (forall ((x_26 Bin_0) (ys_2 Bin_0) (z_0 Bin_0))
	(=> (plus_0 x_26 z_0 ys_2) (plus_0 (ZeroAnd_0 x_26) (ZeroAnd_0 z_0) (ZeroAnd_0 ys_2)))))
(assert (forall ((x_27 Bin_0) (z_0 Bin_0))
	(=> (s_0 x_27 (ZeroAnd_0 z_0)) (plus_0 x_27 (ZeroAnd_0 z_0) One_0))))
(assert (forall ((x_29 Bin_0) (y_0 Bin_0))
	(=> (s_0 x_29 y_0) (plus_0 x_29 One_0 y_0))))
(assert (forall ((x_39 Nat_0) (x_31 Bin_0) (x_32 Nat_0) (x_33 Nat_0) (x_34 Nat_0) (x_4 Bin_0) (y_1 Bin_0))
	(=> (and (diseqNat_0 x_32 x_39) (plus_0 x_31 x_4 y_1) (toNat_0 x_32 x_31) (toNat_0 x_33 x_4) (toNat_0 x_34 y_1) (add_0 x_39 x_33 x_34)) false)))
(check-sat)
(get-model)
